1790	6438
1816	6140
1843	5646
1859	5460
1885	4967
1911	4669
1954	4489
1964	4487
1980	4191
2006	3893
2032	3400
2101	3117
2127	2929
2128	2928
2196	2646
2222	2458
2223	2457
2291	2175
2317	1987
2318	1986
2386	1704
2412	1516
2413	1515
2455	1226
2481	1038
2507	740
2759	733
3011	726
